
Gurobi 9.0.1 (linux64) logging started Thu Apr 30 06:01:46 2020

Gurobi Optimizer version 9.0.1 build v9.0.1rc0 (linux64)
Optimize a model with 1898 rows, 2120 columns and 19440 nonzeros
Model fingerprint: 0x6db0ab8f
Variable types: 0 continuous, 2120 integer (2106 binary)
Coefficient statistics:
  Matrix range     [1e+00, 7e+00]
  Objective range  [7e+00, 1e+02]
  Bounds range     [1e+00, 1e+00]
  RHS range        [1e+00, 1e+00]

User MIP start produced solution with objective 801 (0.01s)
Loaded user MIP start with objective 801

Presolve removed 1296 rows and 1377 columns
Presolve time: 1.36s
Presolved: 602 rows, 743 columns, 6404 nonzeros
Found heuristic solution: objective 728.0000000
Variable types: 0 continuous, 743 integer (743 binary)

Root relaxation: objective 5.643926e+02, 286 iterations, 0.01 seconds

    Nodes    |    Current Node    |     Objective Bounds      |     Work
 Expl Unexpl |  Obj  Depth IntInf | Incumbent    BestBd   Gap | It/Node Time

     0     0  564.39259    0  127  728.00000  564.39259  22.5%     -    1s
     0     0  588.39715    0  134  728.00000  588.39715  19.2%     -    1s
     0     0  594.28933    0  146  728.00000  594.28933  18.4%     -    1s
     0     0  594.86902    0  142  728.00000  594.86902  18.3%     -    1s
     0     0  595.31431    0  141  728.00000  595.31431  18.2%     -    1s
     0     0  595.32699    0  142  728.00000  595.32699  18.2%     -    1s
     0     0  602.76994    0  159  728.00000  602.76994  17.2%     -    1s
     0     0  606.40673    0  144  728.00000  606.40673  16.7%     -    1s
     0     0  606.48716    0  156  728.00000  606.48716  16.7%     -    1s
     0     0  612.00000    0  114  728.00000  612.00000  15.9%     -    1s
     0     0  612.66667    0  137  728.00000  612.66667  15.8%     -    1s
     0     0  612.73163    0  146  728.00000  612.73163  15.8%     -    1s
     0     0  612.78039    0  147  728.00000  612.78039  15.8%     -    1s
     0     0  612.78179    0  147  728.00000  612.78179  15.8%     -    1s
     0     0  614.59030    0  170  728.00000  614.59030  15.6%     -    1s
     0     0  614.59030    0  171  728.00000  614.59030  15.6%     -    1s
     0     0  615.86959    0  166  728.00000  615.86959  15.4%     -    1s
     0     0  616.51099    0  156  728.00000  616.51099  15.3%     -    2s
     0     0  616.53786    0  156  728.00000  616.53786  15.3%     -    2s
     0     0  616.54087    0  158  728.00000  616.54087  15.3%     -    2s
     0     0  618.41122    0  169  728.00000  618.41122  15.1%     -    2s
     0     0  618.41122    0  170  728.00000  618.41122  15.1%     -    2s
     0     0  619.51627    0  162  728.00000  619.51627  14.9%     -    2s
     0     0  619.83439    0  168  728.00000  619.83439  14.9%     -    2s
     0     0  620.12654    0  162  728.00000  620.12654  14.8%     -    2s
     0     0  620.12985    0  162  728.00000  620.12985  14.8%     -    2s
     0     0  620.13085    0  166  728.00000  620.13085  14.8%     -    2s
     0     0  620.25270    0  167  728.00000  620.25270  14.8%     -    2s
     0     0  620.25270    0  158  728.00000  620.25270  14.8%     -    2s
H    0     0                     711.0000000  620.25270  12.8%     -    2s
     0     0  620.62192    0  105  711.00000  620.62192  12.7%     -    2s
     0     0  620.62192    0  146  711.00000  620.62192  12.7%     -    2s
     0     0  620.62192    0  137  711.00000  620.62192  12.7%     -    2s
     0     0  621.24887    0  137  711.00000  621.24887  12.6%     -    2s
     0     0  621.44245    0  158  711.00000  621.44245  12.6%     -    2s
     0     0  621.45833    0  156  711.00000  621.45833  12.6%     -    2s
     0     0  622.14010    0  157  711.00000  622.14010  12.5%     -    2s
     0     0  622.19000    0  159  711.00000  622.19000  12.5%     -    2s
     0     0  622.22395    0  161  711.00000  622.22395  12.5%     -    2s
     0     0  624.83887    0  140  711.00000  624.83887  12.1%     -    2s
     0     0  624.98616    0  157  711.00000  624.98616  12.1%     -    2s
     0     0  624.98616    0  158  711.00000  624.98616  12.1%     -    2s
     0     0  627.01658    0  156  711.00000  627.01658  11.8%     -    2s
     0     0  627.26613    0  157  711.00000  627.26613  11.8%     -    2s
     0     0  627.29539    0  165  711.00000  627.29539  11.8%     -    2s
     0     0  627.51510    0  159  711.00000  627.51510  11.7%     -    2s
     0     0  627.52502    0  163  711.00000  627.52502  11.7%     -    2s
     0     0  627.52606    0  164  711.00000  627.52606  11.7%     -    2s
     0     0  627.52606    0  153  711.00000  627.52606  11.7%     -    2s
     0     2  627.74334    0  153  711.00000  627.74334  11.7%     -    3s
*   31    27              22     708.0000000  633.61268  10.5%  61.0    3s
*   43    35              32     698.0000000  633.61268  9.22%  51.5    3s
*   69    36              21     669.0000000  634.95690  5.09%  39.7    3s

Cutting planes:
  Gomory: 1
  MIR: 11
  Inf proof: 1
  Zero half: 28

Explored 242 nodes (9478 simplex iterations) in 3.72 seconds
Thread count was 1 (of 40 available processors)

Solution count 6: 669 698 708 ... 801

Optimal solution found (tolerance 1.00e-04)
Best objective 6.690000000000e+02, best bound 6.690000000000e+02, gap 0.0000%

User-callback calls 1603, time in user-callback 0.00 sec
